Route #1: 15 22 41 20
Route #2: 83 51 81
Route #3: 80 94 56 21
Route #4: 63 77 3
Route #5: 24 95 73 53 33 32
Route #6: 39 10 18
Route #7: 50 91 52
Route #8: 35 46 31
Route #9: 34 64 96 48 26 47 38
Route #10: 75 93
Route #11: 17 8
Route #12: 40 88 67 44
Route #13: 82 60 59
Route #14: 5 12 58
Route #15: 30 85 11 79
Route #16: 7 2 45 43 29 36 72 57
Route #17: 100 61 23
Route #18: 92 9 86
Route #19: 87 37 6 49 14
Route #20: 4 13 74
Route #21: 68 90 84 66
Route #22: 69 16 55 76
Route #23: 89 98 99 62 71
Route #24: 1 70 54
Route #25: 28 42 78 65 25
Route #26: 27 97 19
Cost 27591.0000
Time 16.0001